SECTION Graph
Nodes 110
Edges 188
E 1 83 8
E 2 3 3
E 2 84 8
E 3 85 8
E 4 77 15
E 4 83 1
E 5 82 15
E 5 85 1
E 6 7 8
E 6 86 14
E 7 88 14
E 8 71 7
E 8 77 2
E 9 41 1
E 9 68 2
E 10 70 2
E 10 71 2
E 10 73 1
E 10 77 7
E 11 64 1
E 11 67 7
E 12 67 2
E 13 14 7
E 13 20 114
E 14 87 86
E 15 16 7
E 15 61 126
E 15 62 126
E 15 63 122
E 16 17 1
E 17 18 7
E 18 19 1
E 19 20 7
E 21 22 8
E 21 43 1
E 22 23 1
E 22 47 1
E 23 43 8
E 23 48 1
E 23 53 4
E 24 26 9
E 24 42 5
E 24 56 30
E 24 58 33
E 25 26 5
E 25 42 9
E 26 49 33
E 27 97 3
E 28 31 32
E 28 97 8
E 29 31 8
E 29 96 3
E 29 97 32
E 30 31 3
E 30 34 15
E 30 96 8
E 32 93 3
E 32 95 7
E 32 96 15
E 33 34 3
E 33 94 1
E 34 95 1
E 35 90 1
E 35 91 2
E 35 92 7
E 36 89 72
E 36 90 7
E 36 92 1
E 37 91 7
E 37 92 2
E 37 94 79
E 38 39 1
E 39 40 16
E 39 51 29
E 40 49 14
E 41 69 2
E 41 71 2
E 42 52 30
E 43 44 4
E 44 45 1
E 44 53 8
E 45 46 3
E 45 55 9
E 46 50 3
E 46 57 9
E 47 48 1
E 47 64 60
E 48 54 4
E 48 65 60
E 49 51 1
E 49 58 9
E 50 52 1
E 50 60 9
E 51 61 9
E 52 56 5
E 52 59 8
E 53 54 1
E 53 59 8
E 54 55 1
E 54 66 60
E 55 57 3
E 55 73 69
E 56 63 8
E 57 60 3
E 57 74 69
E 58 61 1
E 59 62 1
E 59 63 5
E 60 62 1
E 60 76 69
E 62 72 60
E 64 65 1
E 64 68 7
E 65 66 4
E 65 69 7
E 66 70 7
E 66 72 8
E 67 68 1
E 68 69 1
E 69 70 4
E 70 75 8
E 72 75 7
E 73 74 3
E 73 79 7
E 74 76 3
E 74 80 7
E 75 78 2
E 76 78 1
E 76 81 7
E 77 79 1
E 78 82 7
E 79 80 3
E 79 83 15
E 80 81 3
E 80 84 15
E 81 82 1
E 81 85 15
E 83 84 3
E 84 85 3
E 86 87 7
E 86 88 8
E 87 89 8
E 88 89 7
E 88 90 72
E 91 93 79
E 93 94 7
E 94 95 3
E 1 98 100000
E 2 98 100000
E 3 98 100000
E 4 98 100000
E 5 98 100000
E 6 99 100000
E 7 99 100000
E 8 100 100000
E 9 100 100000
E 10 100 100000
E 11 101 100000
E 12 101 100000
E 13 102 100000
E 14 102 100000
E 15 103 100000
E 16 103 100000
E 17 103 100000
E 18 103 100000
E 19 103 100000
E 20 103 100000
E 21 104 100000
E 22 104 100000
E 23 104 100000
E 24 105 100000
E 25 105 100000
E 26 105 100000
E 27 106 100000
E 28 106 100000
E 29 107 100000
E 30 107 100000
E 31 107 100000
E 32 108 100000
E 33 108 100000
E 34 108 100000
E 35 109 100000
E 36 109 100000
E 37 109 100000
E 38 110 100000
E 39 110 100000
E 40 110 100000
E 41 100 100000
END

SECTION Terminals
Terminals 13
T 98
T 99
T 100
T 101
T 102
T 103
T 104
T 105
T 106
T 107
T 108
T 109
T 110
END

EOF
